c uprop, v00.0, 
c reading from data/prog251.c.cnf
c done reading: 0.002429
p cnf 99 413
-50 -58 0
50 58 0
-61 -66 0
61 66 0
-54 -71 0
54 71 0
-75 -78 0
75 78 0
50 -79 0
-50 79 0
-50 -61 68 0
-61 68 0
-50 68 0
50 61 -68 0
61 -68 -81 0
50 -68 -81 0
-61 68 81 0
-50 68 81 0
68 81 0
-50 -61 81 0
57 -61 -71 0
57 -68 -71 0
57 -61 -68 0
-57 61 71 0
-57 68 71 0
-57 61 68 0
-57 -62 71 0
-57 61 -62 0
-57 -62 68 0
57 62 -71 0
57 -61 62 0
57 62 -68 0
-61 62 -68 -71 0
61 -62 68 71 0
48 -71 -78 0
48 -57 -78 0
48 -57 -71 0
-48 71 78 0
-48 57 78 0
-48 57 71 0
-46 -48 78 0
-46 -48 71 0
-46 -48 57 0
46 48 -78 0
46 48 -71 0
46 48 -57 0
46 -57 -71 -78 0
-46 57 71 78 0
-45 78 0
-45 48 0
45 -48 -78 0
-44 -48 -78 0
-44 48 78 0
44 48 -78 0
44 -48 78 0
-41 79 0
41 -79 0
-38 81 0
38 -81 0
-50 -62 63 0
-62 63 0
-50 63 0
50 62 -63 0
-35 62 -63 0
-35 50 -63 0
35 -62 63 0
35 -50 63 0
35 63 0
35 -50 -62 0
-46 51 -61 0
-46 51 -63 0
51 -61 -63 0
46 -51 61 0
46 -51 63 0
-51 61 63 0
-32 46 -51 0
-32 -51 61 0
-32 -51 63 0
32 -46 51 0
32 51 -61 0
32 51 -63 0
32 -46 -61 -63 0
-32 46 61 63 0
-44 -71 72 0
-44 -51 72 0
-51 -71 72 0
44 71 -72 0
44 51 -72 0
51 71 -72 0
-31 44 -72 0
-31 71 -72 0
-31 51 -72 0
31 -44 72 0
31 -71 72 0
31 -51 72 0
31 -44 -51 -71 0
-31 44 51 71 0
30 -45 -78 0
30 -45 -72 0
30 -72 -78 0
-30 45 78 0
-30 45 72 0
-30 72 78 0
-29 -30 45 0
-29 -30 78 0
-29 -30 72 0
29 30 -45 0
29 30 -78 0
29 30 -72 0
29 -45 -72 -78 0
-29 45 72 78 0
-41 -56 0
41 56 0
-38 -47 0
38 47 0
-35 -83 0
35 83 0
-32 -84 0
32 84 0
-31 -85 0
31 85 0
-29 -86 0
29 86 0
-30 -87 0
30 87 0
-43 -59 0
-59 -89 0
43 59 89 0
43 89 -90 0
-43 -89 -90 0
-43 89 90 0
43 -89 90 0
59 -67 0
-40 -67 0
40 -59 67 0
40 -59 -91 0
-40 59 -91 0
40 59 91 0
-40 -59 91 0
-55 67 0
-55 -65 0
55 65 -67 0
65 -67 -92 0
-65 67 -92 0
65 67 92 0
-65 -67 92 0
55 -76 0
-37 -76 0
37 -55 76 0
37 -55 -93 0
-37 55 -93 0
37 55 93 0
-37 -55 93 0
76 -94 0
-53 -94 0
53 -76 94 0
53 -76 -95 0
-53 76 -95 0
53 76 95 0
-53 -76 95 0
94 -96 0
-34 -96 0
34 -94 96 0
34 -94 -97 0
-34 94 -97 0
34 94 97 0
-34 -94 97 0
96 -98 0
-74 -98 0
74 -96 98 0
74 -96 -99 0
-74 96 -99 0
74 96 99 0
-74 -96 99 0
-80 89 0
43 -80 0
-43 80 -89 0
-43 -69 -89 0
43 -69 89 0
43 69 -89 0
-43 69 89 0
-40 82 -89 0
-40 -80 82 0
-80 82 -89 0
40 -82 89 0
40 80 -82 0
80 -82 89 0
-28 40 -82 0
-28 -82 89 0
-28 80 -82 0
28 -40 82 0
28 82 -89 0
28 -80 82 0
28 -40 -80 -89 0
-28 40 80 89 0
27 -40 -65 0
27 -65 -82 0
27 -40 -82 0
-27 40 65 0
-27 65 82 0
-27 40 82 0
-26 -27 65 0
-26 -27 40 0
-26 -27 82 0
26 27 -65 0
26 27 -40 0
26 27 -82 0
26 -40 -65 -82 0
-26 40 65 82 0
25 -37 -65 0
25 -27 -37 0
25 -27 -65 0
-25 37 65 0
-25 27 37 0
-25 27 65 0
-24 -25 37 0
-24 -25 65 0
-24 -25 27 0
24 25 -37 0
24 25 -65 0
24 25 -27 0
24 -27 -37 -65 0
-24 27 37 65 0
23 -37 -53 0
23 -25 -53 0
23 -25 -37 0
-23 37 53 0
-23 25 53 0
-23 25 37 0
-22 -23 53 0
-22 -23 37 0
-22 -23 25 0
22 23 -53 0
22 23 -37 0
22 23 -25 0
22 -25 -37 -53 0
-22 25 37 53 0
21 -34 -53 0
21 -23 -34 0
21 -23 -53 0
-21 34 53 0
-21 23 34 0
-21 23 53 0
-20 -21 34 0
-20 -21 53 0
-20 -21 23 0
20 21 -34 0
20 21 -53 0
20 21 -23 0
20 -23 -34 -53 0
-20 23 34 53 0
19 -34 -74 0
19 -21 -74 0
19 -21 -34 0
-19 34 74 0
-19 21 74 0
-19 21 34 0
-18 -19 74 0
-18 -19 34 0
-18 -19 21 0
18 19 -74 0
18 19 -34 0
18 19 -21 0
18 -21 -34 -74 0
-18 21 34 74 0
-17 74 0
-17 19 0
17 -19 -74 0
-16 -19 -74 0
-16 19 74 0
16 19 -74 0
16 -19 74 0
-15 -43 0
-15 -69 0
15 43 69 0
-14 43 69 0
-14 -43 -69 0
14 -43 69 0
14 43 -69 0
-13 15 0
-13 -28 0
13 -15 28 0
-15 28 -49 0
15 -28 -49 0
15 28 49 0
-15 -28 49 0
13 -60 0
-26 -60 0
-13 26 60 0
-13 26 -70 0
13 -26 -70 0
13 26 70 0
-13 -26 70 0
60 -77 0
-24 -77 0
24 -60 77 0
24 -42 -60 0
-24 -42 60 0
24 42 60 0
-24 42 -60 0
77 -88 0
-22 -88 0
22 -77 88 0
22 -39 -77 0
-22 -39 77 0
22 39 77 0
-22 39 -77 0
-64 88 0
-20 -64 0
20 64 -88 0
20 -36 -88 0
-20 -36 88 0
20 36 88 0
-20 36 -88 0
-52 64 0
-18 -52 0
18 52 -64 0
18 -33 -64 0
-18 -33 64 0
18 33 64 0
-18 33 -64 0
52 -73 0
-16 -73 0
16 -52 73 0
-12 16 -52 0
-12 -16 52 0
12 16 52 0
12 -16 -52 0
-11 73 0
-11 -17 0
11 17 -73 0
-10 17 -73 0
-10 -17 73 0
10 17 73 0
10 -17 -73 0
-9 41 0
-9 43 0
9 -41 -43 0
-41 -43 0
41 43 0
8 -38 -69 0
8 -9 -38 0
8 -9 -69 0
-8 38 69 0
-8 9 38 0
-8 9 69 0
-8 38 0
-8 69 0
-8 9 0
9 38 69 0
7 -28 -35 0
7 -8 -35 0
7 -8 -28 0
-7 28 35 0
-7 8 35 0
-7 8 28 0
7 -35 0
7 -28 0
7 -8 0
-8 -28 -35 0
6 -26 -32 0
6 -7 -32 0
6 -7 -26 0
-6 26 32 0
-6 7 32 0
-6 7 26 0
6 -32 0
6 -26 0
6 -7 0
-7 -26 -32 0
5 -24 -31 0
5 -6 -31 0
5 -6 -24 0
-5 24 31 0
-5 6 31 0
-5 6 24 0
5 -31 0
5 -24 0
5 -6 0
-6 -24 -31 0
4 -22 -29 0
4 -5 -29 0
4 -5 -22 0
-4 22 29 0
-4 5 29 0
-4 5 22 0
4 -29 0
4 -22 0
4 -5 0
-5 -22 -29 0
3 -20 -30 0
3 -4 -30 0
3 -4 -20 0
-3 20 30 0
-3 4 30 0
-3 4 20 0
3 -30 0
3 -20 0
3 -4 0
-4 -20 -30 0
-2 18 0
-2 3 0
2 -3 -18 0
3 -18 0
-3 18 0
-1 16 0
-1 2 0
1 -2 -16 0
2 -16 0
-2 16 0
-1 -17 0
1 -17 0
-1 17 0
